NAME 
ROWS
 N  OBJ
 L  R0      
 E  R1      
 E  R2      
 E  R3      
 E  R4      
 E  R5      
 E  R6      
 E  R7      
 E  R8      
 E  R9      
 E  R10     
 E  R11     
 E  R12     
 E  R13     
 E  R14     
 E  R15     
 E  R16     
 E  R17     
 E  R18     
 E  R19     
 E  R20     
 E  R21     
 E  R22     
 E  R23     
 E  R24     
 E  R25     
 E  R26     
 E  R27     
 E  R28     
 E  R29     
 E  R30     
 E  R31     
 E  R32     
 E  R33     
 E  R34     
 E  R35     
 E  R36     
 E  R37     
 E  R38     
 E  R39     
 E  R40     
COLUMNS
    MARKER    'MARKER'                 'INTORG'
    I0(3)     OBJ       105
    I0(3)     R0        154
    I0(3)     R1        10
    I0(3)     R40       1
    I1(3)     OBJ       -172
    I1(3)     R0        -105
    I1(3)     R2        5
    I1(3)     R40       1
    I2(3)     OBJ       45
    I2(3)     R0        148
    I2(3)     R3        14
    I2(3)     R40       1
    I3(3)     OBJ       99
    I3(3)     R0        135
    I3(3)     R4        4
    I3(3)     R40       1
    I4(3)     OBJ       57
    I4(3)     R0        161
    I4(3)     R5        11
    I4(3)     R40       1
    I5(3)     OBJ       -177
    I5(3)     R0        22
    I5(3)     R6        5
    I5(3)     R40       1
    I6(3)     OBJ       -186
    I6(3)     R0        83
    I6(3)     R7        11
    I6(3)     R40       1
    I7(3)     OBJ       26
    I7(3)     R0        -96
    I7(3)     R8        2
    I7(3)     R40       1
    I8(3)     OBJ       125
    I8(3)     R0        194
    I8(3)     R9        18
    I8(3)     R40       1
    I9(3)     OBJ       -164
    I9(3)     R0        19
    I9(3)     R10       2
    I9(3)     R40       1
    I10(3)    OBJ       -7
    I10(3)    R0        159
    I10(3)    R11       15
    I10(3)    R40       1
    I11(3)    OBJ       96
    I11(3)    R0        -193
    I11(3)    R12       14
    I11(3)    R40       1
    I12(3)    OBJ       -118
    I12(3)    R0        131
    I12(3)    R13       4
    I12(3)    R40       1
    I13(3)    OBJ       153
    I13(3)    R0        187
    I13(3)    R14       4
    I13(3)    R40       1
    I14(3)    OBJ       182
    I14(3)    R0        186
    I14(3)    R15       9
    I14(3)    R40       1
    I15(3)    OBJ       -63
    I15(3)    R0        165
    I15(3)    R16       5
    I15(3)    R40       1
    I16(3)    OBJ       39
    I16(3)    R0        -153
    I16(3)    R17       1
    I16(3)    R40       1
    I17(3)    OBJ       59
    I17(3)    R0        33
    I17(3)    R18       10
    I17(3)    R40       1
    I18(3)    OBJ       -55
    I18(3)    R0        88
    I18(3)    R19       19
    I18(3)    R40       1
    I19(3)    OBJ       -167
    I19(3)    R0        52
    I19(3)    R20       17
    I19(3)    R40       1
    I20(3)    OBJ       -166
    I20(3)    R0        -82
    I20(3)    R21       -1
    I20(3)    R40       1
    I21(3)    OBJ       -108
    I21(3)    R0        -17
    I21(3)    R22       14
    I21(3)    R40       1
    I22(3)    OBJ       172
    I22(3)    R0        -61
    I22(3)    R23       5
    I22(3)    R40       1
    I23(3)    OBJ       -2
    I23(3)    R0        -116
    I23(3)    R24       18
    I23(3)    R40       1
    I24(3)    OBJ       -192
    I24(3)    R0        188
    I24(3)    R25       8
    I24(3)    R40       1
    I25(3)    OBJ       183
    I25(3)    R0        -41
    I25(3)    R26       12
    I25(3)    R40       1
    I26(3)    OBJ       58
    I26(3)    R0        56
    I26(3)    R27       9
    I26(3)    R40       1
    I27(3)    OBJ       -6
    I27(3)    R0        161
    I27(3)    R28       1
    I27(3)    R40       1
    I28(3)    OBJ       -13
    I28(3)    R0        -25
    I28(3)    R29       11
    I28(3)    R40       1
    I29(3)    OBJ       29
    I29(3)    R0        -42
    I29(3)    R30       13
    I29(3)    R40       1
    I30(3)    OBJ       -81
    I30(3)    R0        57
    I30(3)    R31       14
    I30(3)    R40       1
    I31(3)    OBJ       6
    I31(3)    R0        -53
    I31(3)    R32       8
    I31(3)    R40       1
    I32(3)    OBJ       113
    I32(3)    R0        170
    I32(3)    R33       -1
    I32(3)    R40       1
    I33(3)    OBJ       -97
    I33(3)    R0        140
    I33(3)    R34       1
    I33(3)    R40       1
    I34(3)    OBJ       4
    I34(3)    R0        60
    I34(3)    R35       4
    I34(3)    R40       1
    I35(3)    OBJ       21
    I35(3)    R0        -26
    I35(3)    R36       11
    I35(3)    R40       1
    I36(3)    OBJ       101
    I36(3)    R0        -115
    I36(3)    R37       2
    I36(3)    R40       1
    I37(3)    OBJ       -45
    I37(3)    R0        28
    I37(3)    R38       5
    I37(3)    R40       1
    MARKER    'MARKER'                 'INTEND'
    C38(39)   OBJ       -5
    C38(39)   R0        9
    C38(39)   R1        19
    C38(39)   R2        2
    C38(39)   R3        -1
    C38(39)   R4        5
    C38(39)   R5        4
    C38(39)   R6        16
    C38(39)   R7        16
    C38(39)   R8        10
    C38(39)   R9        18
    C38(39)   R10       1
    C38(39)   R11       5
    C38(39)   R12       18
    C38(39)   R13       -1
    C38(39)   R14       13
    C38(39)   R15       10
    C38(39)   R16       14
    C38(39)   R17       16
    C38(39)   R18       16
    C38(39)   R20       15
    C38(39)   R21       8
    C38(39)   R22       14
    C38(39)   R23       11
    C38(39)   R24       2
    C38(39)   R25       17
    C38(39)   R26       4
    C38(39)   R27       13
    C38(39)   R28       9
    C38(39)   R29       14
    C38(39)   R30       6
    C38(39)   R31       18
    C38(39)   R32       17
    C38(39)   R33       17
    C38(39)   R34       6
    C38(39)   R35       9
    C38(39)   R36       2
    C38(39)   R37       -1
    C38(39)   R38       17
    C38(39)   R39       10
    C39(38)   OBJ       1
    C39(38)   R1        15
    C39(38)   R3        5
    C39(38)   R4        -1
    C39(38)   R5        -1
    C39(38)   R6        5
    C39(38)   R7        14
    C39(38)   R8        15
    C39(38)   R9        2
    C39(38)   R10       11
    C39(38)   R11       3
    C39(38)   R12       15
    C39(38)   R13       4
    C39(38)   R14       19
    C39(38)   R15       4
    C39(38)   R16       5
    C39(38)   R17       10
    C39(38)   R18       7
    C39(38)   R19       13
    C39(38)   R20       14
    C39(38)   R21       16
    C39(38)   R22       16
    C39(38)   R23       -1
    C39(38)   R24       14
    C39(38)   R25       15
    C39(38)   R26       6
    C39(38)   R27       15
    C39(38)   R28       2
    C39(38)   R29       -1
    C39(38)   R30       3
    C39(38)   R31       18
    C39(38)   R32       7
    C39(38)   R33       5
    C39(38)   R34       5
    C39(38)   R35       8
    C39(38)   R36       17
    C39(38)   R37       4
    C39(38)   R38       3
    C39(38)   R39       18
    C40(1)    R1        1
    C41(1)    R2        1
    C42(1)    R3        1
    C43(1)    R4        1
    C44(1)    R5        1
    C45(1)    R6        1
    C46(1)    R7        1
    C47(1)    R8        1
    C48(1)    R9        1
    C49(1)    R10       1
    C50(1)    R11       1
    C51(1)    R12       1
    C52(1)    R13       1
    C53(1)    R14       1
    C54(1)    R15       1
    C55(1)    R16       1
    C56(1)    R17       1
    C57(1)    R18       1
    C58(1)    R19       1
    C59(1)    R20       1
    C60(1)    R21       1
    C61(1)    R22       1
    C62(1)    R23       1
    C63(1)    R24       1
    C64(1)    R25       1
    C65(1)    R26       1
    C66(1)    R27       1
    C67(1)    R28       1
    C68(1)    R29       1
    C69(1)    R30       1
    C70(1)    R31       1
    C71(1)    R32       1
    C72(1)    R33       1
    C73(1)    R34       1
    C74(1)    R35       1
    C75(1)    R36       1
    C76(1)    R37       1
    C77(1)    R38       1
    C78(1)    R39       1
    C79(1)    R40       1
RHS
    RHS1      R0        673.4
    RHS1      R1        81
    RHS1      R2        86
    RHS1      R3        91
    RHS1      R4        88
    RHS1      R5        84
    RHS1      R6        67
    RHS1      R7        87
    RHS1      R8        72
    RHS1      R9        61
    RHS1      R10       89
    RHS1      R11       97
    RHS1      R12       82
    RHS1      R13       75
    RHS1      R14       57
    RHS1      R15       64
    RHS1      R16       80
    RHS1      R17       92
    RHS1      R18       92
    RHS1      R19       64
    RHS1      R20       51
    RHS1      R21       64
    RHS1      R22       83
    RHS1      R23       70
    RHS1      R24       76
    RHS1      R25       60
    RHS1      R26       88
    RHS1      R27       95
    RHS1      R28       57
    RHS1      R29       72
    RHS1      R30       58
    RHS1      R31       91
    RHS1      R32       98
    RHS1      R33       77
    RHS1      R34       54
    RHS1      R35       82
    RHS1      R36       81
    RHS1      R37       81
    RHS1      R38       87
    RHS1      R39       52
    RHS1      R40       12
BOUNDS
 UP BND1      I0(3)     1
 UP BND1      I1(3)     1
 UP BND1      I2(3)     1
 UP BND1      I3(3)     1
 UP BND1      I4(3)     1
 UP BND1      I5(3)     1
 UP BND1      I6(3)     1
 UP BND1      I7(3)     1
 UP BND1      I8(3)     1
 UP BND1      I9(3)     1
 UP BND1      I10(3)    1
 UP BND1      I11(3)    1
 UP BND1      I12(3)    1
 UP BND1      I13(3)    1
 UP BND1      I14(3)    1
 UP BND1      I15(3)    1
 UP BND1      I16(3)    1
 UP BND1      I17(3)    1
 UP BND1      I18(3)    1
 UP BND1      I19(3)    1
 UP BND1      I20(3)    1
 UP BND1      I21(3)    1
 UP BND1      I22(3)    1
 UP BND1      I23(3)    1
 UP BND1      I24(3)    1
 UP BND1      I25(3)    1
 UP BND1      I26(3)    1
 UP BND1      I27(3)    1
 UP BND1      I28(3)    1
 UP BND1      I29(3)    1
 UP BND1      I30(3)    1
 UP BND1      I31(3)    1
 UP BND1      I32(3)    1
 UP BND1      I33(3)    1
 UP BND1      I34(3)    1
 UP BND1      I35(3)    1
 UP BND1      I36(3)    1
 UP BND1      I37(3)    1
ENDATA
